c Random generated cnf formula, satisfiable: true
p cnf 10 50
-9 -3 1 0
3 -5 -10 0
10 -5 3 0
5 7 8 0
-4 -3 2 0
-6 -9 -7 0
6 -9 3 0
3 5 1 0
10 -4 7 0
-9 -2 10 0
-3 2 -1 0
2 1 -4 0
2 5 6 0
7 1 3 0
6 -2 5 0
-8 -5 7 0
5 -4 -10 0
7 3 10 0
-2 9 1 0
-4 6 1 0
9 -8 10 0
-5 -8 -3 0
8 -7 -9 0
-10 -1 4 0
-6 -1 3 0
9 2 7 0
1 7 -6 0
7 5 10 0
8 10 9 0
6 3 -1 0
5 -2 9 0
7 -4 3 0
-3 8 1 0
9 -7 3 0
5 4 7 0
3 -10 -4 0
4 -9 7 0
-10 -5 -9 0
4 -7 -9 0
8 4 -2 0
8 -3 5 0
8 -2 10 0
-9 7 -1 0
-5 2 7 0
-3 1 2 0
4 -6 -5 0
-2 -6 7 0
2 -1 7 0
-2 -9 -4 0
-3 9 1 0
